(set-info :smt-lib-version 2.6)
(set-info :category "crafted")
(set-logic QF_FF)
(define-sort FF0 () (_ FiniteField 52435875175126190479447740508185965837690552500527637822603658699938581184513))
(declare-fun _22_alt () FF0)
(declare-fun _19_alt () FF0)
(declare-fun _18_alt () FF0)
(declare-fun _8_alt () FF0)
(declare-fun _7_alt () FF0)
(declare-fun _12_alt () FF0)
(declare-fun _13_alt () FF0)
(declare-fun _1_alt () FF0)
(declare-fun _11_alt () FF0)
(declare-fun _0_alt () FF0)
(declare-fun _2_alt () FF0)
(declare-fun _22 () FF0)
(declare-fun _19 () FF0)
(declare-fun _18 () FF0)
(declare-fun _8 () FF0)
(declare-fun _7 () FF0)
(declare-fun _12 () FF0)
(declare-fun _13 () FF0)
(declare-fun _1 () FF0)
(declare-fun _11 () FF0)
(declare-fun _0 () FF0)
(declare-fun _2 () FF0)
(declare-fun out_alt () FF0)
(declare-fun out () FF0)
(assert 
  (let ((let0 _22_alt))
  (let ((let1 _19_alt))
  (let ((let2 _18_alt))
  (let ((let3 (ff.add let2 let1)))
  (let ((let4 _8_alt))
  (let ((let5 _7_alt))
  (let ((let6 (ff.add let5 let4)))
  (let ((let7 (ff.mul let6 let3)))
  (let ((let8 (= let7 let0)))
  (let ((let9 _12_alt))
  (let ((let10 _13_alt))
  (let ((let11 (ff.mul let10 let9)))
  (let ((let12 (= let11 let1)))
  (let ((let13 (as ff1 FF0)))
  (let ((let14 (as ff52435875175126190479447740508185965837690552500527637822603658699938581184512 FF0)))
  (let ((let15 (ff.mul let10 let14)))
  (let ((let16 (ff.add let15 let13)))
  (let ((let17 (ff.mul let16 let16)))
  (let ((let18 (= let17 let2)))
  (let ((let19 _1_alt))
  (let ((let20 (ff.mul let19 let14)))
  (let ((let21 (ff.add let20 let9)))
  (let ((let22 (ff.mul let21 let21)))
  (let ((let23 (= let22 let10)))
  (let ((let24 (ff.mul let9 let14)))
  (let ((let25 _11_alt))
  (let ((let26 _0_alt))
  (let ((let27 (ff.add let26 let25 let24)))
  (let ((let28 (ff.mul let25 let26)))
  (let ((let29 (= let28 let27)))
  (let ((let30 (ff.mul let25 let14)))
  (let ((let31 (ff.add let30 let13)))
  (let ((let32 (ff.mul let4 let14)))
  (let ((let33 (ff.mul let5 let14)))
  (let ((let34 (ff.add let33 let32 let13)))
  (let ((let35 (ff.mul let6 let34)))
  (let ((let36 (= let35 let31)))
  (let ((let37 _2_alt))
  (let ((let38 (ff.mul let37 let14)))
  (let ((let39 (ff.add let38 let13)))
  (let ((let40 (ff.mul let37 let39)))
  (let ((let41 (= let40 let4)))
  (let ((let42 (ff.mul let39 let19)))
  (let ((let43 (= let42 let5)))
  (let ((let44 (ff.add let26 let20)))
  (let ((let45 (ff.mul let44 let44)))
  (let ((let46 (= let45 let37)))
  (let ((let47 (ff.mul let19 let19)))
  (let ((let48 (= let47 let19)))
  (let ((let49 (ff.mul let26 let26)))
  (let ((let50 (= let49 let26)))
  (let ((let51 (and let50 let48 let46 let43 let41 let36 let29 let23 let18 let12 let8)))
  (let ((let52 _22))
  (let ((let53 _19))
  (let ((let54 _18))
  (let ((let55 (ff.add let54 let53)))
  (let ((let56 _8))
  (let ((let57 _7))
  (let ((let58 (ff.add let57 let56)))
  (let ((let59 (ff.mul let58 let55)))
  (let ((let60 (= let59 let52)))
  (let ((let61 _12))
  (let ((let62 _13))
  (let ((let63 (ff.mul let62 let61)))
  (let ((let64 (= let63 let53)))
  (let ((let65 (ff.mul let62 let14)))
  (let ((let66 (ff.add let65 let13)))
  (let ((let67 (ff.mul let66 let66)))
  (let ((let68 (= let67 let54)))
  (let ((let69 _1))
  (let ((let70 (ff.mul let69 let14)))
  (let ((let71 (ff.add let70 let61)))
  (let ((let72 (ff.mul let71 let71)))
  (let ((let73 (= let72 let62)))
  (let ((let74 (ff.mul let61 let14)))
  (let ((let75 _11))
  (let ((let76 _0))
  (let ((let77 (ff.add let76 let75 let74)))
  (let ((let78 (ff.mul let75 let76)))
  (let ((let79 (= let78 let77)))
  (let ((let80 (ff.mul let75 let14)))
  (let ((let81 (ff.add let80 let13)))
  (let ((let82 (ff.mul let56 let14)))
  (let ((let83 (ff.mul let57 let14)))
  (let ((let84 (ff.add let83 let82 let13)))
  (let ((let85 (ff.mul let58 let84)))
  (let ((let86 (= let85 let81)))
  (let ((let87 _2))
  (let ((let88 (ff.mul let87 let14)))
  (let ((let89 (ff.add let88 let13)))
  (let ((let90 (ff.mul let87 let89)))
  (let ((let91 (= let90 let56)))
  (let ((let92 (ff.mul let89 let69)))
  (let ((let93 (= let92 let57)))
  (let ((let94 (ff.add let76 let70)))
  (let ((let95 (ff.mul let94 let94)))
  (let ((let96 (= let95 let87)))
  (let ((let97 (ff.mul let69 let69)))
  (let ((let98 (= let97 let69)))
  (let ((let99 (ff.mul let76 let76)))
  (let ((let100 (= let99 let76)))
  (let ((let101 (and let100 let98 let96 let93 let91 let86 let79 let73 let68 let64 let60)))
  (let ((let102 out_alt))
  (let ((let103 out))
  (let ((let104 (= let103 let102)))
  (let ((let105 (not let104)))
  (let ((let106 (= let69 let19)))
  (let ((let107 (= let76 let26)))
  (let ((let108 (and let107 let106)))
  (let ((let109 (and let108 let105 let101 let51)))
  let109
))))))))))))))))))))))))))))))))))))))))))))))))))))))))))))))))))))))))))))))))))))))))))))))))))))))))))))))
)
(check-sat)
